(set-info :smt-lib-version 2.6)
(set-logic QF_NIA)
(set-info :source |
     Constraint systems stating that a matrix interpretation is
     compatible with a rewriting system (weakly compatible with
     all rules, strictly compatible with at least one).

     Contributed by Johannes Waldmann at HTKW Leipzig.
   |)
(set-info :category "crafted")
(set-info :status sat)
(declare-fun n0 () Int)
(assert (>= n0 0))
(declare-fun n1 () Int)
(assert (>= n1 0))
(declare-fun n2 () Int)
(assert (>= n2 0))
(declare-fun n3 () Int)
(assert (>= n3 0))
(declare-fun n4 () Int)
(assert (>= n4 0))
(declare-fun n5 () Int)
(assert (>= n5 0))
(assert (>= n2 1))
(declare-fun n6 () Int)
(assert (>= n6 0))
(declare-fun n7 () Int)
(assert (>= n7 0))
(declare-fun n8 () Int)
(assert (>= n8 0))
(declare-fun n9 () Int)
(assert (>= n9 0))
(declare-fun n10 () Int)
(assert (>= n10 0))
(declare-fun n11 () Int)
(assert (>= n11 0))
(assert (>= n8 1))
(declare-fun n12 () Int)
(assert (>= n12 0))
(declare-fun n13 () Int)
(assert (>= n13 0))
(declare-fun n14 () Int)
(assert (>= n14 0))
(declare-fun n15 () Int)
(assert (>= n15 0))
(declare-fun n16 () Int)
(assert (>= n16 0))
(declare-fun n17 () Int)
(assert (>= n17 0))
(assert (>= n14 1))
(declare-fun n18 () Int)
(assert (= n18 (* n2 n12)))
(declare-fun n19 () Int)
(assert (= n19 (* n3 n13)))
(declare-fun n20 () Int)
(assert (= n20 (* n4 n12)))
(declare-fun n21 () Int)
(assert (= n21 (* n5 n13)))
(declare-fun n22 () Int)
(assert (= n22 (+ n18 n19)))
(declare-fun n23 () Int)
(assert (= n23 (+ n20 n21)))
(declare-fun n24 () Int)
(assert (= n24 (+ n0 n22)))
(declare-fun n25 () Int)
(assert (= n25 (+ n1 n23)))
(declare-fun n26 () Int)
(assert (= n26 (* n2 n14)))
(declare-fun n27 () Int)
(assert (= n27 (* n3 n16)))
(declare-fun n28 () Int)
(assert (= n28 (* n2 n15)))
(declare-fun n29 () Int)
(assert (= n29 (* n3 n17)))
(declare-fun n30 () Int)
(assert (= n30 (* n4 n14)))
(declare-fun n31 () Int)
(assert (= n31 (* n5 n16)))
(declare-fun n32 () Int)
(assert (= n32 (* n4 n15)))
(declare-fun n33 () Int)
(assert (= n33 (* n5 n17)))
(declare-fun n34 () Int)
(assert (= n34 (+ n26 n27)))
(declare-fun n35 () Int)
(assert (= n35 (+ n28 n29)))
(declare-fun n36 () Int)
(assert (= n36 (+ n30 n31)))
(declare-fun n37 () Int)
(assert (= n37 (+ n32 n33)))
(declare-fun n38 () Int)
(assert (= n38 (* n14 n6)))
(declare-fun n39 () Int)
(assert (= n39 (* n15 n7)))
(declare-fun n40 () Int)
(assert (= n40 (* n16 n6)))
(declare-fun n41 () Int)
(assert (= n41 (* n17 n7)))
(declare-fun n42 () Int)
(assert (= n42 (+ n38 n39)))
(declare-fun n43 () Int)
(assert (= n43 (+ n40 n41)))
(declare-fun n44 () Int)
(assert (= n44 (+ n12 n42)))
(declare-fun n45 () Int)
(assert (= n45 (+ n13 n43)))
(declare-fun n46 () Int)
(assert (= n46 (* n14 n8)))
(declare-fun n47 () Int)
(assert (= n47 (* n15 n10)))
(declare-fun n48 () Int)
(assert (= n48 (* n14 n9)))
(declare-fun n49 () Int)
(assert (= n49 (* n15 n11)))
(declare-fun n50 () Int)
(assert (= n50 (* n16 n8)))
(declare-fun n51 () Int)
(assert (= n51 (* n17 n10)))
(declare-fun n52 () Int)
(assert (= n52 (* n16 n9)))
(declare-fun n53 () Int)
(assert (= n53 (* n17 n11)))
(declare-fun n54 () Int)
(assert (= n54 (+ n46 n47)))
(declare-fun n55 () Int)
(assert (= n55 (+ n48 n49)))
(declare-fun n56 () Int)
(assert (= n56 (+ n50 n51)))
(declare-fun n57 () Int)
(assert (= n57 (+ n52 n53)))
(declare-fun n58 () Int)
(assert (= n58 (* n8 n12)))
(declare-fun n59 () Int)
(assert (= n59 (* n9 n13)))
(declare-fun n60 () Int)
(assert (= n60 (* n10 n12)))
(declare-fun n61 () Int)
(assert (= n61 (* n11 n13)))
(declare-fun n62 () Int)
(assert (= n62 (+ n58 n59)))
(declare-fun n63 () Int)
(assert (= n63 (+ n60 n61)))
(declare-fun n64 () Int)
(assert (= n64 (+ n6 n62)))
(declare-fun n65 () Int)
(assert (= n65 (+ n7 n63)))
(declare-fun n66 () Int)
(assert (= n66 (* n8 n14)))
(declare-fun n67 () Int)
(assert (= n67 (* n9 n16)))
(declare-fun n68 () Int)
(assert (= n68 (* n8 n15)))
(declare-fun n69 () Int)
(assert (= n69 (* n9 n17)))
(declare-fun n70 () Int)
(assert (= n70 (* n10 n14)))
(declare-fun n71 () Int)
(assert (= n71 (* n11 n16)))
(declare-fun n72 () Int)
(assert (= n72 (* n10 n15)))
(declare-fun n73 () Int)
(assert (= n73 (* n11 n17)))
(declare-fun n74 () Int)
(assert (= n74 (+ n66 n67)))
(declare-fun n75 () Int)
(assert (= n75 (+ n68 n69)))
(declare-fun n76 () Int)
(assert (= n76 (+ n70 n71)))
(declare-fun n77 () Int)
(assert (= n77 (+ n72 n73)))
(declare-fun n78 () Int)
(assert (= n78 (* n54 n6)))
(declare-fun n79 () Int)
(assert (= n79 (* n55 n7)))
(declare-fun n80 () Int)
(assert (= n80 (* n56 n6)))
(declare-fun n81 () Int)
(assert (= n81 (* n57 n7)))
(declare-fun n82 () Int)
(assert (= n82 (+ n78 n79)))
(declare-fun n83 () Int)
(assert (= n83 (+ n80 n81)))
(declare-fun n84 () Int)
(assert (= n84 (+ n44 n82)))
(declare-fun n85 () Int)
(assert (= n85 (+ n45 n83)))
(declare-fun n86 () Int)
(assert (= n86 (* n54 n8)))
(declare-fun n87 () Int)
(assert (= n87 (* n55 n10)))
(declare-fun n88 () Int)
(assert (= n88 (* n54 n9)))
(declare-fun n89 () Int)
(assert (= n89 (* n55 n11)))
(declare-fun n90 () Int)
(assert (= n90 (* n56 n8)))
(declare-fun n91 () Int)
(assert (= n91 (* n57 n10)))
(declare-fun n92 () Int)
(assert (= n92 (* n56 n9)))
(declare-fun n93 () Int)
(assert (= n93 (* n57 n11)))
(declare-fun n94 () Int)
(assert (= n94 (+ n86 n87)))
(declare-fun n95 () Int)
(assert (= n95 (+ n88 n89)))
(declare-fun n96 () Int)
(assert (= n96 (+ n90 n91)))
(declare-fun n97 () Int)
(assert (= n97 (+ n92 n93)))
(assert (>= n64 n84))
(assert (>= n65 n85))
(assert (>= n74 n94))
(assert (>= n75 n95))
(assert (>= n76 n96))
(assert (>= n77 n97))
(declare-fun n98 () Int)
(assert (= n98 (* n14 n0)))
(declare-fun n99 () Int)
(assert (= n99 (* n15 n1)))
(declare-fun n100 () Int)
(assert (= n100 (* n16 n0)))
(declare-fun n101 () Int)
(assert (= n101 (* n17 n1)))
(declare-fun n102 () Int)
(assert (= n102 (+ n98 n99)))
(declare-fun n103 () Int)
(assert (= n103 (+ n100 n101)))
(declare-fun n104 () Int)
(assert (= n104 (+ n12 n102)))
(declare-fun n105 () Int)
(assert (= n105 (+ n13 n103)))
(declare-fun n106 () Int)
(assert (= n106 (* n14 n2)))
(declare-fun n107 () Int)
(assert (= n107 (* n15 n4)))
(declare-fun n108 () Int)
(assert (= n108 (* n14 n3)))
(declare-fun n109 () Int)
(assert (= n109 (* n15 n5)))
(declare-fun n110 () Int)
(assert (= n110 (* n16 n2)))
(declare-fun n111 () Int)
(assert (= n111 (* n17 n4)))
(declare-fun n112 () Int)
(assert (= n112 (* n16 n3)))
(declare-fun n113 () Int)
(assert (= n113 (* n17 n5)))
(declare-fun n114 () Int)
(assert (= n114 (+ n106 n107)))
(declare-fun n115 () Int)
(assert (= n115 (+ n108 n109)))
(declare-fun n116 () Int)
(assert (= n116 (+ n110 n111)))
(declare-fun n117 () Int)
(assert (= n117 (+ n112 n113)))
(declare-fun n118 () Int)
(assert (= n118 (* n34 n12)))
(declare-fun n119 () Int)
(assert (= n119 (* n35 n13)))
(declare-fun n120 () Int)
(assert (= n120 (* n36 n12)))
(declare-fun n121 () Int)
(assert (= n121 (* n37 n13)))
(declare-fun n122 () Int)
(assert (= n122 (+ n118 n119)))
(declare-fun n123 () Int)
(assert (= n123 (+ n120 n121)))
(declare-fun n124 () Int)
(assert (= n124 (+ n24 n122)))
(declare-fun n125 () Int)
(assert (= n125 (+ n25 n123)))
(declare-fun n126 () Int)
(assert (= n126 (* n34 n14)))
(declare-fun n127 () Int)
(assert (= n127 (* n35 n16)))
(declare-fun n128 () Int)
(assert (= n128 (* n34 n15)))
(declare-fun n129 () Int)
(assert (= n129 (* n35 n17)))
(declare-fun n130 () Int)
(assert (= n130 (* n36 n14)))
(declare-fun n131 () Int)
(assert (= n131 (* n37 n16)))
(declare-fun n132 () Int)
(assert (= n132 (* n36 n15)))
(declare-fun n133 () Int)
(assert (= n133 (* n37 n17)))
(declare-fun n134 () Int)
(assert (= n134 (+ n126 n127)))
(declare-fun n135 () Int)
(assert (= n135 (+ n128 n129)))
(declare-fun n136 () Int)
(assert (= n136 (+ n130 n131)))
(declare-fun n137 () Int)
(assert (= n137 (+ n132 n133)))
(assert (>= n104 n124))
(assert (>= n105 n125))
(assert (>= n114 n134))
(assert (>= n115 n135))
(assert (>= n116 n136))
(assert (>= n117 n137))
(assert (or (> n64 n84) (> n104 n124)))
(assert (<= n0 100))
(assert (<= n1 100))
(assert (<= n10 100))
(assert (<= 0 n100))
(assert (<= n100 100))
(assert (<= 0 n101))
(assert (<= n101 100))
(assert (<= 0 n102))
(assert (<= n102 100))
(assert (<= 0 n103))
(assert (<= n103 100))
(assert (<= 0 n104))
(assert (<= n104 100))
(assert (<= 0 n105))
(assert (<= n105 100))
(assert (<= 0 n106))
(assert (<= n106 100))
(assert (<= 0 n107))
(assert (<= n107 100))
(assert (<= 0 n108))
(assert (<= n108 100))
(assert (<= 0 n109))
(assert (<= n109 100))
(assert (<= n11 100))
(assert (<= 0 n110))
(assert (<= n110 100))
(assert (<= 0 n111))
(assert (<= n111 100))
(assert (<= 0 n112))
(assert (<= n112 100))
(assert (<= 0 n113))
(assert (<= n113 100))
(assert (<= 0 n114))
(assert (<= n114 100))
(assert (<= 0 n115))
(assert (<= n115 100))
(assert (<= 0 n116))
(assert (<= n116 100))
(assert (<= 0 n117))
(assert (<= n117 100))
(assert (<= 0 n118))
(assert (<= n118 100))
(assert (<= 0 n119))
(assert (<= n119 100))
(assert (<= n12 100))
(assert (<= 0 n120))
(assert (<= n120 100))
(assert (<= 0 n121))
(assert (<= n121 100))
(assert (<= 0 n122))
(assert (<= n122 100))
(assert (<= 0 n123))
(assert (<= n123 100))
(assert (<= 0 n124))
(assert (<= n124 100))
(assert (<= 0 n125))
(assert (<= n125 100))
(assert (<= 0 n126))
(assert (<= n126 100))
(assert (<= 0 n127))
(assert (<= n127 100))
(assert (<= 0 n128))
(assert (<= n128 100))
(assert (<= 0 n129))
(assert (<= n129 100))
(assert (<= n13 100))
(assert (<= 0 n130))
(assert (<= n130 100))
(assert (<= 0 n131))
(assert (<= n131 100))
(assert (<= 0 n132))
(assert (<= n132 100))
(assert (<= 0 n133))
(assert (<= n133 100))
(assert (<= 0 n134))
(assert (<= n134 100))
(assert (<= 0 n135))
(assert (<= n135 100))
(assert (<= 0 n136))
(assert (<= n136 100))
(assert (<= 0 n137))
(assert (<= n137 100))
(assert (<= n14 100))
(assert (<= n15 100))
(assert (<= n16 100))
(assert (<= n17 100))
(assert (<= 0 n18))
(assert (<= n18 100))
(assert (<= 0 n19))
(assert (<= n19 100))
(assert (<= n2 100))
(assert (<= 0 n20))
(assert (<= n20 100))
(assert (<= 0 n21))
(assert (<= n21 100))
(assert (<= 0 n22))
(assert (<= n22 100))
(assert (<= 0 n23))
(assert (<= n23 100))
(assert (<= 0 n24))
(assert (<= n24 100))
(assert (<= 0 n25))
(assert (<= n25 100))
(assert (<= 0 n26))
(assert (<= n26 100))
(assert (<= 0 n27))
(assert (<= n27 100))
(assert (<= 0 n28))
(assert (<= n28 100))
(assert (<= 0 n29))
(assert (<= n29 100))
(assert (<= n3 100))
(assert (<= 0 n30))
(assert (<= n30 100))
(assert (<= 0 n31))
(assert (<= n31 100))
(assert (<= 0 n32))
(assert (<= n32 100))
(assert (<= 0 n33))
(assert (<= n33 100))
(assert (<= 0 n34))
(assert (<= n34 100))
(assert (<= 0 n35))
(assert (<= n35 100))
(assert (<= 0 n36))
(assert (<= n36 100))
(assert (<= 0 n37))
(assert (<= n37 100))
(assert (<= 0 n38))
(assert (<= n38 100))
(assert (<= 0 n39))
(assert (<= n39 100))
(assert (<= n4 100))
(assert (<= 0 n40))
(assert (<= n40 100))
(assert (<= 0 n41))
(assert (<= n41 100))
(assert (<= 0 n42))
(assert (<= n42 100))
(assert (<= 0 n43))
(assert (<= n43 100))
(assert (<= 0 n44))
(assert (<= n44 100))
(assert (<= 0 n45))
(assert (<= n45 100))
(assert (<= 0 n46))
(assert (<= n46 100))
(assert (<= 0 n47))
(assert (<= n47 100))
(assert (<= 0 n48))
(assert (<= n48 100))
(assert (<= 0 n49))
(assert (<= n49 100))
(assert (<= n5 100))
(assert (<= 0 n50))
(assert (<= n50 100))
(assert (<= 0 n51))
(assert (<= n51 100))
(assert (<= 0 n52))
(assert (<= n52 100))
(assert (<= 0 n53))
(assert (<= n53 100))
(assert (<= 0 n54))
(assert (<= n54 100))
(assert (<= 0 n55))
(assert (<= n55 100))
(assert (<= 0 n56))
(assert (<= n56 100))
(assert (<= 0 n57))
(assert (<= n57 100))
(assert (<= 0 n58))
(assert (<= n58 100))
(assert (<= 0 n59))
(assert (<= n59 100))
(assert (<= n6 100))
(assert (<= 0 n60))
(assert (<= n60 100))
(assert (<= 0 n61))
(assert (<= n61 100))
(assert (<= 0 n62))
(assert (<= n62 100))
(assert (<= 0 n63))
(assert (<= n63 100))
(assert (<= 0 n64))
(assert (<= n64 100))
(assert (<= 0 n65))
(assert (<= n65 100))
(assert (<= 0 n66))
(assert (<= n66 100))
(assert (<= 0 n67))
(assert (<= n67 100))
(assert (<= 0 n68))
(assert (<= n68 100))
(assert (<= 0 n69))
(assert (<= n69 100))
(assert (<= n7 100))
(assert (<= 0 n70))
(assert (<= n70 100))
(assert (<= 0 n71))
(assert (<= n71 100))
(assert (<= 0 n72))
(assert (<= n72 100))
(assert (<= 0 n73))
(assert (<= n73 100))
(assert (<= 0 n74))
(assert (<= n74 100))
(assert (<= 0 n75))
(assert (<= n75 100))
(assert (<= 0 n76))
(assert (<= n76 100))
(assert (<= 0 n77))
(assert (<= n77 100))
(assert (<= 0 n78))
(assert (<= n78 100))
(assert (<= 0 n79))
(assert (<= n79 100))
(assert (<= n8 100))
(assert (<= 0 n80))
(assert (<= n80 100))
(assert (<= 0 n81))
(assert (<= n81 100))
(assert (<= 0 n82))
(assert (<= n82 100))
(assert (<= 0 n83))
(assert (<= n83 100))
(assert (<= 0 n84))
(assert (<= n84 100))
(assert (<= 0 n85))
(assert (<= n85 100))
(assert (<= 0 n86))
(assert (<= n86 100))
(assert (<= 0 n87))
(assert (<= n87 100))
(assert (<= 0 n88))
(assert (<= n88 100))
(assert (<= 0 n89))
(assert (<= n89 100))
(assert (<= n9 100))
(assert (<= 0 n90))
(assert (<= n90 100))
(assert (<= 0 n91))
(assert (<= n91 100))
(assert (<= 0 n92))
(assert (<= n92 100))
(assert (<= 0 n93))
(assert (<= n93 100))
(assert (<= 0 n94))
(assert (<= n94 100))
(assert (<= 0 n95))
(assert (<= n95 100))
(assert (<= 0 n96))
(assert (<= n96 100))
(assert (<= 0 n97))
(assert (<= n97 100))
(assert (<= 0 n98))
(assert (<= n98 100))
(assert (<= 0 n99))
(assert (<= n99 100))
(check-sat)
(exit)
